WARNING: for repeatability, setting FPU to use double precision
============================[ Problem Statistics ]=============================
|                                                                             |
|  Number of variables:           100                                         |
|  Number of clauses:             449                                         |
|  Parse time:                   0.00 s                                       |
|  Eliminated clauses:           0.00 Mb                                      |
|  Simplification time:          0.00 s                                       |
|                                                                             |
============================[ Search Statistics ]==============================
| Conflicts |          ORIGINAL         |          LEARNT          | Progress |
|           |    Vars  Clauses Literals |    Limit  Clauses Lit/Cl |          |
===============================================================================
|       100 |      98      447     1352 |      163      100      7 |  0.010 % |
|       250 |      98      447     1352 |      180      161      6 |  0.030 % |
===============================================================================
restarts              : 3
conflicts             : 298            (78815 /sec)
decisions             : 364            (0.00 % random) (96271 /sec)
propagations          : 6750           (1785242 /sec)
conflict literals     : 1743           (22.67 % deleted)
Memory used           : 13.00 MB
CPU time              : 0.003781 s

SATISFIABLE
